p edge 20 54 8
v 3 3 5 19
v 3 9 11 13
v 2 7 12
v 3 6 16 20
v 2 1 15
v 3 8 14 17
v 1 18
v 3 2 4 10
e 1 3
e 1 5
e 1 6
e 1 12
e 1 14
e 1 15
e 2 3
e 2 8
e 2 19
e 3 5
e 3 8
e 3 9
e 3 12
e 3 19
e 3 20
e 4 7
e 4 8
e 4 9
e 4 15
e 4 20
e 5 7
e 5 18
e 6 7
e 6 8
e 6 9
e 6 13
e 6 16
e 6 18
e 6 20
e 7 19
e 8 9
e 8 13
e 8 17
e 8 19
e 9 11
e 9 16
e 9 17
e 9 18
e 10 15
e 10 16
e 10 20
e 11 13
e 11 14
e 11 16
e 11 19
e 13 18
e 13 20
e 14 16
e 14 17
e 14 18
e 15 19
e 17 18
e 17 19
e 19 20
